1238.42 0
0 22 24 30 31 60 1 32 134 76 77 64 63 79 67 68 70 69 133 78 74 73 0 
0 81 113 129 128 127 123 122 110 111 125 132 0 
0 120 109 107 108 106 114 115 0 
0 23 59 58 57 105 97 96 42 41 3 40 44 43 39 38 98 99 100 101 102 53 52 51 50 62 49 34 48 75 47 72 0 
0 26 28 29 2 4 5 9 8 6 7 10 11 12 88 14 15 13 16 92 93 94 45 95 37 36 35 104 103 56 55 54 61 0 
0 33 80 112 126 124 121 116 131 117 119 130 65 19 0 
0 91 21 25 27 90 89 87 86 84 85 83 20 82 46 118 18 17 71 66 0 
